 Code  2631
 Dimension, Fixed Cost
   100        3000
 Facility, Client, Transportation Cost
     1       14           4
     1       22           0
     1       36           2
     1       51           3
     1       55           0
     1       63           2
     1       68           1
     1       82           0
     1       83           4
     1       88           4
     2        7           0
     2        9           0
     2       11           2
     2       13           4
     2       48           1
     2       50           4
     2       51           1
     2       62           1
     2       78           3
     2       95           0
     3        2           4
     3       13           3
     3       37           1
     3       41           2
     3       42           2
     3       46           4
     3       66           0
     3       79           2
     3       91           1
     3       95           3
     4        5           1
     4       17           1
     4       32           4
     4       33           0
     4       38           4
     4       45           3
     4       77           3
     4       83           4
     4       85           4
     4       99           3
     5        6           4
     5       35           3
     5       37           1
     5       58           1
     5       62           2
     5       63           2
     5       64           2
     5       71           4
     5       78           4
     5      100           2
     6        3           0
     6       20           0
     6       24           2
     6       40           2
     6       56           1
     6       69           3
     6       70           1
     6       74           2
     6       75           2
     6       95           3
     7       24           3
     7       27           4
     7       29           1
     7       33           2
     7       37           0
     7       49           2
     7       50           0
     7       54           1
     7       65           2
     7       78           3
     8        8           2
     8       21           1
     8       42           0
     8       64           2
     8       76           1
     8       77           0
     8       83           2
     8       91           0
     8       92           1
     8       93           2
     9        8           0
     9       13           1
     9       26           0
     9       30           3
     9       33           3
     9       34           3
     9       45           0
     9       51           2
     9       79           0
     9       95           0
    10        6           3
    10        9           1
    10       31           0
    10       32           4
    10       39           0
    10       46           4
    10       52           3
    10       65           2
    10       72           3
    10       76           0
    11        5           0
    11       15           0
    11       17           4
    11       35           4
    11       36           0
    11       67           3
    11       69           2
    11       71           3
    11       73           2
    11       77           3
    12       24           2
    12       32           0
    12       37           4
    12       39           1
    12       52           3
    12       54           0
    12       60           3
    12       68           2
    12       81           4
    12       82           4
    13        7           1
    13       10           2
    13       48           3
    13       51           0
    13       54           0
    13       63           2
    13       67           3
    13       75           3
    13       81           3
    13       97           2
    14       10           2
    14       29           1
    14       34           2
    14       58           4
    14       65           0
    14       67           2
    14       73           3
    14       78           4
    14       81           1
    14       98           3
    15        2           2
    15        7           4
    15        9           3
    15       37           1
    15       52           3
    15       59           2
    15       67           1
    15       76           2
    15       92           3
    15       99           2
    16        4           1
    16       40           2
    16       54           4
    16       55           0
    16       56           2
    16       57           0
    16       60           3
    16       77           0
    16       81           2
    16       84           0
    17        3           0
    17       22           0
    17       30           4
    17       45           4
    17       55           2
    17       59           3
    17       61           3
    17       69           4
    17       84           0
    17       88           3
    18        3           4
    18        9           1
    18       10           3
    18       16           3
    18       28           1
    18       38           2
    18       41           2
    18       47           3
    18       63           4
    18       68           0
    19        1           3
    19       13           1
    19       17           1
    19       18           0
    19       56           3
    19       60           4
    19       66           2
    19       70           1
    19       92           2
    19       95           4
    20       33           4
    20       38           0
    20       52           0
    20       58           0
    20       60           4
    20       61           1
    20       63           1
    20       69           4
    20       90           2
    20       95           1
    21        5           3
    21       28           3
    21       40           0
    21       52           2
    21       55           3
    21       66           4
    21       68           2
    21       69           4
    21       81           4
    21       94           4
    22       14           4
    22       33           3
    22       41           2
    22       52           4
    22       77           2
    22       85           2
    22       86           4
    22       87           0
    22       90           0
    22       99           4
    23        1           0
    23        4           1
    23       17           2
    23       28           2
    23       30           4
    23       35           3
    23       69           3
    23       73           1
    23       75           3
    23       76           2
    24        7           0
    24       12           1
    24       44           1
    24       57           4
    24       63           1
    24       69           2
    24       74           4
    24       83           3
    24       88           1
    24      100           3
    25        4           2
    25       11           3
    25       27           2
    25       51           2
    25       68           3
    25       71           1
    25       72           1
    25       80           4
    25       92           0
    25       94           4
    26        6           3
    26       19           1
    26       31           0
    26       32           2
    26       35           1
    26       50           2
    26       54           1
    26       55           1
    26       56           1
    26       93           1
    27        2           4
    27        4           0
    27       36           0
    27       41           0
    27       60           2
    27       69           0
    27       71           2
    27       77           0
    27       80           3
    27       86           2
    28        5           2
    28        9           4
    28       30           4
    28       43           1
    28       49           0
    28       52           0
    28       63           2
    28       70           2
    28       77           3
    28       86           1
    29       12           0
    29       16           1
    29       29           4
    29       48           2
    29       65           4
    29       66           4
    29       69           1
    29       72           0
    29       79           2
    29       84           0
    30        1           3
    30       22           4
    30       31           1
    30       34           2
    30       55           3
    30       59           0
    30       60           2
    30       63           3
    30       88           4
    30       95           0
    31        1           2
    31       33           2
    31       35           2
    31       47           1
    31       56           1
    31       77           2
    31       81           1
    31       88           1
    31       93           2
    31       94           0
    32        1           3
    32        2           2
    32       11           3
    32       19           1
    32       25           3
    32       34           2
    32       58           4
    32       59           4
    32       71           1
    32       97           4
    33       47           3
    33       50           0
    33       56           2
    33       58           0
    33       62           1
    33       63           1
    33       69           0
    33       81           3
    33       90           2
    33       91           3
    34        4           3
    34        5           3
    34       16           0
    34       19           1
    34       37           0
    34       38           1
    34       71           3
    34       76           4
    34       77           3
    34       88           4
    35        5           1
    35        7           2
    35        9           1
    35       19           1
    35       20           1
    35       37           1
    35       57           3
    35       78           4
    35       87           2
    35       97           0
    36        4           4
    36        6           0
    36       10           1
    36       19           3
    36       42           0
    36       48           4
    36       51           3
    36       77           1
    36       92           0
    36       96           1
    37       10           3
    37       14           0
    37       38           3
    37       50           4
    37       59           3
    37       67           2
    37       73           3
    37       85           3
    37       94           1
    37       99           2
    38       15           0
    38       37           2
    38       56           4
    38       57           1
    38       58           0
    38       59           4
    38       68           1
    38       76           0
    38       88           2
    38       94           2
    39        2           4
    39        7           1
    39       19           3
    39       31           1
    39       44           4
    39       51           4
    39       80           4
    39       93           2
    39       97           0
    39       99           4
    40        2           2
    40        3           0
    40        7           3
    40       35           0
    40       42           1
    40       54           3
    40       78           1
    40       92           2
    40       96           2
    40       98           3
    41       17           3
    41       24           2
    41       32           3
    41       37           4
    41       45           0
    41       62           2
    41       78           4
    41       83           0
    41       84           0
    41       94           2
    42        4           2
    42        5           2
    42       35           3
    42       45           3
    42       50           0
    42       57           0
    42       73           4
    42       78           2
    42       83           0
    42       88           2
    43       20           1
    43       24           4
    43       27           0
    43       36           0
    43       69           3
    43       70           1
    43       86           2
    43       89           3
    43       90           3
    43       97           3
    44        8           4
    44       18           4
    44       28           4
    44       44           3
    44       48           2
    44       68           1
    44       73           1
    44       77           3
    44       80           3
    44       86           3
    45       11           2
    45       18           0
    45       21           3
    45       27           1
    45       37           4
    45       48           1
    45       49           0
    45       50           3
    45       64           2
    45       73           4
    46        3           3
    46        8           4
    46       26           2
    46       27           2
    46       29           3
    46       33           0
    46       52           1
    46       56           3
    46       87           2
    46       93           2
    47        6           1
    47       19           1
    47       21           4
    47       26           0
    47       29           2
    47       32           4
    47       41           4
    47       71           2
    47       73           3
    47       82           2
    48        4           2
    48       42           2
    48       46           3
    48       48           4
    48       63           3
    48       64           1
    48       70           2
    48       79           3
    48       83           0
    48       85           0
    49       13           0
    49       33           3
    49       38           4
    49       50           3
    49       56           2
    49       67           0
    49       68           2
    49       73           0
    49       82           1
    49       89           1
    50       21           0
    50       31           3
    50       38           0
    50       40           2
    50       43           2
    50       61           3
    50       65           3
    50       70           1
    50       73           0
    50       81           3
    51       28           3
    51       33           3
    51       44           1
    51       45           0
    51       47           0
    51       48           4
    51       55           4
    51       80           1
    51       94           3
    51       95           1
    52        1           1
    52       12           3
    52       13           3
    52       17           1
    52       18           3
    52       42           2
    52       60           0
    52       73           4
    52       82           0
    52       97           2
    53       11           2
    53       18           1
    53       42           4
    53       46           2
    53       65           4
    53       67           1
    53       82           1
    53       83           4
    53       86           4
    53       92           3
    54       26           1
    54       28           3
    54       31           0
    54       33           2
    54       69           0
    54       70           2
    54       72           4
    54       81           3
    54       83           3
    54       93           1
    55        9           0
    55       18           1
    55       21           1
    55       40           2
    55       47           4
    55       49           3
    55       53           3
    55       81           2
    55       82           2
    55       95           4
    56       23           4
    56       31           3
    56       39           3
    56       52           0
    56       53           3
    56       61           1
    56       72           2
    56       82           0
    56       85           2
    56      100           1
    57        5           0
    57       13           3
    57       44           1
    57       50           2
    57       59           0
    57       70           0
    57       71           0
    57       80           1
    57       88           2
    57       93           0
    58        6           3
    58       10           0
    58       34           4
    58       35           4
    58       46           1
    58       63           2
    58       66           0
    58       71           0
    58       74           2
    58       95           0
    59        6           1
    59       14           2
    59       16           0
    59       39           0
    59       59           1
    59       69           1
    59       77           0
    59       78           3
    59       81           0
    59       94           2
    60        6           2
    60       24           0
    60       27           2
    60       37           4
    60       39           0
    60       40           0
    60       61           1
    60       82           4
    60       88           2
    60       95           2
    61       15           2
    61       17           1
    61       54           1
    61       72           0
    61       79           3
    61       80           2
    61       81           4
    61       85           1
    61       89           0
    61       95           3
    62       15           4
    62       25           0
    62       33           2
    62       36           1
    62       47           3
    62       59           1
    62       68           2
    62       74           2
    62       83           2
    62       92           4
    63        4           2
    63       12           1
    63       17           2
    63       18           0
    63       22           4
    63       26           0
    63       54           3
    63       69           1
    63       79           4
    63       82           1
    64       20           2
    64       31           4
    64       32           2
    64       38           4
    64       44           4
    64       59           1
    64       65           1
    64       75           2
    64       85           0
    64       86           1
    65        7           4
    65       18           2
    65       43           4
    65       48           3
    65       59           1
    65       66           1
    65       67           3
    65       88           1
    65       96           3
    65       97           2
    66       14           0
    66       20           1
    66       22           2
    66       39           4
    66       57           1
    66       67           1
    66       71           0
    66       84           3
    66       87           2
    66       92           3
    67       17           4
    67       54           0
    67       56           4
    67       74           4
    67       75           4
    67       82           2
    67       84           2
    67       85           1
    67       86           3
    67       91           0
    68        5           2
    68       14           3
    68       19           1
    68       32           4
    68       47           1
    68       75           0
    68       79           1
    68       84           0
    68       95           3
    68       96           4
    69        7           3
    69       32           2
    69       34           4
    69       37           1
    69       43           4
    69       44           3
    69       50           1
    69       51           4
    69       72           3
    69       75           3
    70       12           1
    70       14           4
    70       37           0
    70       42           3
    70       52           3
    70       66           0
    70       72           4
    70       80           4
    70       90           4
    70      100           3
    71        2           3
    71       11           2
    71       15           1
    71       16           2
    71       27           2
    71       30           2
    71       48           2
    71       49           1
    71       58           3
    71       74           4
    72       20           2
    72       21           3
    72       35           1
    72       36           2
    72       59           1
    72       62           0
    72       79           3
    72       85           4
    72       88           3
    72       95           3
    73        6           1
    73       13           2
    73       35           1
    73       36           1
    73       44           2
    73       53           0
    73       54           2
    73       56           2
    73       84           2
    73       92           0
    74       11           4
    74       32           0
    74       33           0
    74       35           0
    74       48           3
    74       55           2
    74       61           3
    74       63           2
    74       75           1
    74       96           4
    75        6           2
    75       19           0
    75       23           0
    75       27           0
    75       32           4
    75       35           0
    75       64           4
    75       66           3
    75       70           2
    75       88           2
    76        8           4
    76       24           2
    76       25           3
    76       29           1
    76       32           2
    76       36           3
    76       37           3
    76       66           3
    76       84           0
    76       87           2
    77        4           3
    77       10           1
    77       13           1
    77       24           1
    77       32           0
    77       35           0
    77       41           0
    77       49           1
    77       66           2
    77       83           4
    78       14           0
    78       22           1
    78       37           2
    78       52           4
    78       55           4
    78       61           3
    78       78           1
    78       82           1
    78       90           3
    78       91           4
    79       19           2
    79       32           4
    79       41           2
    79       48           1
    79       52           2
    79       58           2
    79       76           4
    79       79           4
    79       85           3
    79       96           4
    80        7           1
    80       27           0
    80       31           2
    80       47           0
    80       52           4
    80       70           0
    80       83           1
    80       88           3
    80       94           3
    80       95           0
    81        3           2
    81       17           1
    81       34           3
    81       41           1
    81       44           0
    81       57           4
    81       62           1
    81       65           4
    81       89           4
    81       96           4
    82        1           2
    82       26           3
    82       39           1
    82       40           4
    82       45           1
    82       50           1
    82       75           4
    82       91           3
    82       99           1
    82      100           4
    83       12           4
    83       28           1
    83       29           0
    83       34           3
    83       36           4
    83       43           0
    83       71           3
    83       74           3
    83       93           4
    83       95           2
    84        8           2
    84       10           1
    84       11           2
    84       31           4
    84       42           0
    84       43           3
    84       47           2
    84       75           3
    84       92           3
    84       93           2
    85        4           2
    85        8           3
    85       10           1
    85       34           3
    85       39           0
    85       51           3
    85       82           2
    85       87           1
    85       88           2
    85       93           0
    86       26           1
    86       31           1
    86       32           3
    86       42           2
    86       61           3
    86       69           3
    86       77           1
    86       79           4
    86       84           2
    86       88           4
    87       15           0
    87       55           1
    87       57           3
    87       67           2
    87       80           3
    87       86           2
    87       94           0
    87       96           1
    87       97           1
    87      100           2
    88        5           2
    88        8           4
    88       13           3
    88       21           4
    88       28           4
    88       39           3
    88       50           4
    88       79           2
    88       90           1
    88       93           0
    89        1           3
    89        3           4
    89        4           4
    89       28           2
    89       42           0
    89       54           3
    89       58           0
    89       63           0
    89       85           0
    89       99           0
    90       11           2
    90       19           4
    90       21           0
    90       25           4
    90       40           0
    90       46           3
    90       48           3
    90       60           3
    90       70           3
    90       87           2
    91        4           2
    91        6           2
    91       12           4
    91       59           0
    91       60           2
    91       66           1
    91       72           1
    91       86           2
    91       93           3
    91      100           4
    92        2           1
    92        6           3
    92       14           4
    92       17           3
    92       42           2
    92       47           4
    92       50           0
    92       82           0
    92       86           1
    92      100           4
    93       13           0
    93       19           3
    93       21           4
    93       27           0
    93       47           0
    93       56           2
    93       66           0
    93       78           4
    93       79           0
    93       89           4
    94        3           3
    94        6           2
    94       38           1
    94       53           1
    94       61           1
    94       62           3
    94       67           2
    94       69           4
    94       79           2
    94       99           3
    95       11           0
    95       15           0
    95       25           0
    95       34           0
    95       53           4
    95       66           0
    95       67           0
    95       71           1
    95       95           2
    95      100           1
    96        3           2
    96        5           4
    96        8           0
    96       13           1
    96       23           0
    96       40           1
    96       51           0
    96       52           2
    96       62           3
    96       95           0
    97        2           4
    97        9           2
    97       13           1
    97       16           0
    97       17           2
    97       18           2
    97       36           1
    97       49           4
    97       71           2
    97       94           3
    98       15           4
    98       24           2
    98       28           3
    98       30           3
    98       38           0
    98       41           2
    98       47           4
    98       58           1
    98       67           0
    98       99           3
    99        3           2
    99       30           3
    99       67           4
    99       69           0
    99       76           4
    99       78           2
    99       79           2
    99       87           2
    99       90           4
    99       99           4
   100        4           1
   100        7           2
   100       43           2
   100       44           4
   100       45           4
   100       46           3
   100       65           0
   100       74           4
   100       81           2
   100       96           3
